c Created with the Wolfram Language : www.wolfram.com
c 
p edge 100 708
e 1 4
e 3 8
e 3 11
e 7 13
e 3 14
e 6 14
e 8 14
e 10 15
e 11 15
e 14 15
e 7 16
e 11 16
e 13 16
e 7 17
e 10 17
e 11 17
e 14 17
e 15 17
e 5 18
e 9 18
e 11 18
e 9 19
e 4 20
e 7 20
e 9 20
e 11 20
e 19 20
e 2 21
e 17 21
e 20 21
e 5 22
e 15 22
e 8 23
e 13 23
e 15 24
e 19 24
e 2 25
e 8 25
e 13 26
e 13 27
e 14 27
e 18 27
e 19 27
e 3 28
e 13 28
e 14 28
e 15 28
e 6 29
e 13 29
e 22 29
e 23 29
e 5 30
e 20 30
e 28 30
e 4 31
e 7 31
e 11 31
e 13 31
e 15 31
e 16 31
e 20 31
e 21 31
e 28 31
e 3 32
e 4 32
e 2 33
e 3 33
e 6 33
e 2 34
e 18 34
e 20 34
e 31 34
e 32 34
e 22 35
e 23 35
e 28 35
e 30 35
e 34 35
e 5 36
e 13 36
e 18 36
e 19 36
e 20 36
e 1 37
e 9 37
e 19 37
e 30 37
e 32 37
e 3 38
e 4 38
e 16 38
e 24 38
e 32 38
e 13 39
e 22 39
e 26 39
e 38 39
e 1 40
e 5 40
e 15 40
e 17 40
e 25 40
e 26 40
e 31 40
e 39 40
e 6 41
e 23 41
e 36 41
e 4 42
e 10 42
e 16 42
e 29 42
e 30 42
e 37 42
e 6 43
e 8 43
e 14 43
e 17 43
e 24 43
e 25 43
e 38 43
e 39 43
e 18 44
e 21 44
e 28 44
e 38 44
e 14 45
e 20 45
e 25 45
e 28 45
e 31 45
e 32 45
e 2 46
e 24 46
e 29 46
e 31 46
e 35 46
e 42 46
e 44 46
e 19 47
e 33 47
e 36 47
e 40 47
e 42 47
e 7 48
e 19 48
e 24 48
e 30 48
e 33 48
e 45 48
e 11 49
e 39 49
e 3 50
e 9 50
e 16 50
e 34 50
e 36 50
e 42 50
e 45 50
e 47 50
e 2 51
e 4 51
e 13 51
e 15 51
e 22 51
e 27 51
e 28 51
e 38 51
e 42 51
e 43 51
e 47 51
e 6 52
e 17 52
e 41 52
e 43 52
e 46 52
e 9 53
e 16 53
e 17 53
e 18 53
e 23 53
e 39 53
e 42 53
e 1 54
e 3 54
e 5 54
e 11 54
e 12 54
e 21 54
e 33 54
e 35 54
e 36 54
e 53 54
e 4 55
e 8 55
e 29 55
e 37 55
e 42 55
e 44 55
e 6 56
e 7 56
e 10 56
e 21 56
e 22 56
e 25 56
e 26 56
e 34 56
e 35 56
e 54 56
e 3 57
e 6 57
e 9 57
e 12 57
e 15 57
e 21 57
e 28 57
e 30 57
e 54 57
e 5 58
e 10 58
e 11 58
e 20 58
e 25 58
e 35 58
e 40 58
e 41 58
e 44 58
e 53 58
e 6 59
e 11 59
e 13 59
e 16 59
e 24 59
e 30 59
e 34 59
e 37 59
e 48 59
e 51 59
e 53 59
e 54 59
e 58 59
e 5 60
e 12 60
e 15 60
e 22 60
e 24 60
e 41 60
e 55 60
e 6 61
e 12 61
e 21 61
e 45 61
e 48 61
e 52 61
e 54 61
e 12 62
e 19 62
e 39 62
e 40 62
e 54 62
e 61 62
e 8 63
e 14 63
e 30 63
e 32 63
e 37 63
e 2 64
e 44 64
e 50 64
e 55 64
e 59 64
e 63 64
e 1 65
e 16 65
e 26 65
e 46 65
e 48 65
e 55 65
e 9 66
e 16 66
e 19 66
e 31 66
e 37 66
e 38 66
e 42 66
e 51 66
e 59 66
e 8 67
e 23 67
e 34 67
e 38 67
e 39 67
e 50 67
e 59 67
e 66 67
e 3 68
e 11 68
e 12 68
e 17 68
e 19 68
e 28 68
e 37 68
e 41 68
e 42 68
e 47 68
e 50 68
e 51 68
e 55 68
e 59 68
e 65 68
e 10 69
e 15 69
e 18 69
e 22 69
e 30 69
e 36 69
e 37 69
e 40 69
e 44 69
e 46 69
e 64 69
e 68 69
e 8 70
e 12 70
e 19 70
e 20 70
e 25 70
e 30 70
e 31 70
e 52 70
e 53 70
e 59 70
e 64 70
e 66 70
e 7 71
e 8 71
e 11 71
e 13 71
e 18 71
e 26 71
e 28 71
e 30 71
e 37 71
e 46 71
e 47 71
e 56 71
e 60 71
e 65 71
e 5 72
e 9 72
e 11 72
e 26 72
e 30 72
e 37 72
e 41 72
e 42 72
e 49 72
e 50 72
e 52 72
e 54 72
e 57 72
e 58 72
e 67 72
e 69 72
e 1 73
e 11 73
e 13 73
e 20 73
e 37 73
e 38 73
e 60 73
e 67 73
e 10 74
e 12 74
e 20 74
e 21 74
e 23 74
e 28 74
e 30 74
e 35 74
e 38 74
e 41 74
e 53 74
e 58 74
e 61 74
e 1 75
e 3 75
e 5 75
e 19 75
e 21 75
e 28 75
e 48 75
e 56 75
e 67 75
e 68 75
e 70 75
e 72 75
e 74 75
e 1 76
e 4 76
e 5 76
e 6 76
e 10 76
e 29 76
e 32 76
e 37 76
e 46 76
e 54 76
e 66 76
e 74 76
e 2 77
e 5 77
e 13 77
e 17 77
e 32 77
e 40 77
e 42 77
e 58 77
e 60 77
e 62 77
e 21 78
e 23 78
e 25 78
e 27 78
e 32 78
e 34 78
e 35 78
e 39 78
e 74 78
e 75 78
e 3 79
e 4 79
e 9 79
e 11 79
e 16 79
e 21 79
e 52 79
e 56 79
e 68 79
e 74 79
e 14 80
e 17 80
e 23 80
e 59 80
e 60 80
e 65 80
e 66 80
e 74 80
e 6 81
e 8 81
e 17 81
e 22 81
e 24 81
e 45 81
e 50 81
e 55 81
e 59 81
e 67 81
e 69 81
e 75 81
e 79 81
e 1 82
e 8 82
e 11 82
e 16 82
e 20 82
e 22 82
e 27 82
e 28 82
e 41 82
e 49 82
e 56 82
e 68 82
e 81 82
e 8 83
e 11 83
e 30 83
e 32 83
e 44 83
e 46 83
e 47 83
e 48 83
e 50 83
e 54 83
e 63 83
e 64 83
e 76 83
e 81 83
e 1 84
e 2 84
e 4 84
e 12 84
e 13 84
e 14 84
e 20 84
e 27 84
e 44 84
e 48 84
e 60 84
e 65 84
e 69 84
e 73 84
e 3 85
e 7 85
e 12 85
e 17 85
e 37 85
e 39 85
e 42 85
e 43 85
e 53 85
e 57 85
e 58 85
e 62 85
e 63 85
e 65 85
e 77 85
e 81 85
e 1 86
e 23 86
e 25 86
e 39 86
e 53 86
e 63 86
e 72 86
e 4 87
e 16 87
e 67 87
e 72 87
e 74 87
e 75 87
e 77 87
e 83 87
e 2 88
e 3 88
e 5 88
e 24 88
e 38 88
e 47 88
e 48 88
e 54 88
e 61 88
e 74 88
e 75 88
e 80 88
e 85 88
e 86 88
e 1 89
e 13 89
e 17 89
e 24 89
e 29 89
e 31 89
e 33 89
e 42 89
e 44 89
e 51 89
e 53 89
e 68 89
e 75 89
e 81 89
e 86 89
e 3 90
e 12 90
e 17 90
e 27 90
e 33 90
e 36 90
e 49 90
e 53 90
e 54 90
e 57 90
e 78 90
e 81 90
e 86 90
e 89 90
e 1 91
e 6 91
e 13 91
e 17 91
e 20 91
e 32 91
e 34 91
e 38 91
e 40 91
e 63 91
e 66 91
e 71 91
e 77 91
e 78 91
e 79 91
e 84 91
e 86 91
e 90 91
e 1 92
e 12 92
e 20 92
e 21 92
e 25 92
e 28 92
e 29 92
e 38 92
e 42 92
e 43 92
e 46 92
e 54 92
e 57 92
e 58 92
e 63 92
e 72 92
e 80 92
e 88 92
e 3 93
e 7 93
e 11 93
e 13 93
e 18 93
e 25 93
e 40 93
e 46 93
e 51 93
e 76 93
e 82 93
e 7 94
e 19 94
e 22 94
e 33 94
e 36 94
e 43 94
e 44 94
e 51 94
e 53 94
e 54 94
e 76 94
e 77 94
e 4 95
e 13 95
e 21 95
e 39 95
e 42 95
e 43 95
e 50 95
e 64 95
e 70 95
e 72 95
e 83 95
e 92 95
e 1 96
e 3 96
e 13 96
e 31 96
e 33 96
e 36 96
e 37 96
e 41 96
e 42 96
e 45 96
e 46 96
e 51 96
e 55 96
e 61 96
e 63 96
e 77 96
e 81 96
e 82 96
e 89 96
e 94 96
e 6 97
e 8 97
e 18 97
e 22 97
e 23 97
e 24 97
e 52 97
e 71 97
e 72 97
e 74 97
e 3 98
e 4 98
e 8 98
e 19 98
e 25 98
e 26 98
e 32 98
e 35 98
e 39 98
e 48 98
e 58 98
e 63 98
e 67 98
e 72 98
e 73 98
e 84 98
e 85 98
e 93 98
e 96 98
e 97 98
e 5 99
e 19 99
e 21 99
e 30 99
e 73 99
e 75 99
e 82 99
e 96 99
e 5 100
e 12 100
e 28 100
